c Generated map
c Size: 15 * 15, weights in range: 1 to 10, walls: True, with ratio 0.1
c dim 3 of 4
c
p sp 225 342
c graph contains 225 nodes and 342 arcs
c
a 1 16 2
a 16 1 2
a 1 2 6
a 2 1 6
a 2 17 3
a 17 2 3
a 2 3 8
a 3 2 8
a 3 18 7
a 18 3 7
a 3 4 5
a 4 3 5
a 4 19 1
a 19 4 1
a 4 5 5
a 5 4 5
a 5 20 3
a 20 5 3
a 5 6 7
a 6 5 7
a 6 21 9
a 21 6 9
a 6 7 9
a 7 6 9
a 7 22 3
a 22 7 3
a 7 8 8
a 8 7 8
a 8 23 3
a 23 8 3
a 8 9 5
a 9 8 5
a 9 24 1
a 24 9 1
a 9 10 5
a 10 9 5
a 10 25 5
a 25 10 5
a 10 11 7
a 11 10 7
a 11 26 4
a 26 11 4
a 11 12 9
a 12 11 9
a 12 27 7
a 27 12 7
a 12 13 2
a 13 12 2
a 13 28 7
a 28 13 7
a 13 14 1
a 14 13 1
a 14 29 3
a 29 14 3
a 14 15 8
a 15 14 8
a 15 30 4
a 30 15 4
a 16 31 9
a 31 16 9
a 16 17 5
a 17 16 5
a 17 32 2
a 32 17 2
a 17 18 7
a 18 17 7
a 18 33 7
a 33 18 7
a 18 19 6
a 19 18 6
a 19 34 1
a 34 19 1
a 19 20 7
a 20 19 7
a 20 35 1
a 35 20 1
a 20 21 9
a 21 20 9
a 21 36 4
a 36 21 4
a 21 22 5
a 22 21 5
a 22 37 2
a 37 22 2
a 22 23 6
a 23 22 6
a 23 24 9
a 24 23 9
a 24 39 3
a 39 24 3
a 24 25 1
a 25 24 1
a 25 40 8
a 40 25 8
a 25 26 6
a 26 25 6
a 26 41 7
a 41 26 7
a 26 27 1
a 27 26 1
a 27 42 7
a 42 27 7
a 27 28 3
a 28 27 3
a 28 43 4
a 43 28 4
a 28 29 4
a 29 28 4
a 29 44 2
a 44 29 2
a 29 30 6
a 30 29 6
a 30 45 6
a 45 30 6
a 31 46 3
a 46 31 3
a 31 32 7
a 32 31 7
a 32 47 2
a 47 32 2
a 32 33 1
a 33 32 1
a 33 48 2
a 48 33 2
a 33 34 10
a 34 33 10
a 34 49 5
a 49 34 5
a 34 35 2
a 35 34 2
a 35 36 3
a 36 35 3
a 36 51 5
a 51 36 5
a 36 37 5
a 37 36 5
a 37 52 10
a 52 37 10
a 39 54 6
a 54 39 6
a 39 40 9
a 40 39 9
a 40 55 2
a 55 40 2
a 40 41 9
a 41 40 9
a 41 56 5
a 56 41 5
a 41 42 5
a 42 41 5
a 42 43 5
a 43 42 5
a 43 58 8
a 58 43 8
a 43 44 8
a 44 43 8
a 44 45 6
a 45 44 6
a 46 61 7
a 61 46 7
a 46 47 7
a 47 46 7
a 47 62 4
a 62 47 4
a 47 48 3
a 48 47 3
a 48 63 10
a 63 48 10
a 48 49 2
a 49 48 2
a 49 64 6
a 64 49 6
a 51 66 6
a 66 51 6
a 51 52 1
a 52 51 1
a 52 67 10
a 67 52 10
a 52 53 2
a 53 52 2
a 53 68 5
a 68 53 5
a 53 54 2
a 54 53 2
a 54 55 1
a 55 54 1
a 55 70 2
a 70 55 2
a 55 56 7
a 56 55 7
a 56 71 9
a 71 56 9
a 58 73 9
a 73 58 9
a 61 76 1
a 76 61 1
a 61 62 6
a 62 61 6
a 62 77 7
a 77 62 7
a 62 63 4
a 63 62 4
a 63 78 1
a 78 63 1
a 63 64 6
a 64 63 6
a 64 79 4
a 79 64 4
a 64 65 8
a 65 64 8
a 65 80 9
a 80 65 9
a 65 66 1
a 66 65 1
a 66 81 2
a 81 66 2
a 66 67 10
a 67 66 10
a 67 82 9
a 82 67 9
a 67 68 4
a 68 67 4
a 68 83 2
a 83 68 2
a 70 85 7
a 85 70 7
a 70 71 1
a 71 70 1
a 71 86 5
a 86 71 5
a 71 72 3
a 72 71 3
a 72 87 1
a 87 72 1
a 72 73 6
a 73 72 6
a 73 88 5
a 88 73 5
a 75 90 4
a 90 75 4
a 76 91 8
a 91 76 8
a 76 77 2
a 77 76 2
a 77 92 6
a 92 77 6
a 77 78 4
a 78 77 4
a 78 79 1
a 79 78 1
a 79 94 7
a 94 79 7
a 79 80 6
a 80 79 6
a 80 95 6
a 95 80 6
a 80 81 9
a 81 80 9
a 81 96 3
a 96 81 3
a 81 82 3
a 82 81 3
a 82 97 7
a 97 82 7
a 82 83 8
a 83 82 8
a 83 98 6
a 98 83 6
a 85 100 4
a 100 85 4
a 85 86 5
a 86 85 5
a 86 101 2
a 101 86 2
a 86 87 2
a 87 86 2
a 87 88 1
a 88 87 1
a 88 103 1
a 103 88 1
a 88 89 8
a 89 88 8
a 89 104 10
a 104 89 10
a 89 90 3
a 90 89 3
a 91 106 4
a 106 91 4
a 91 92 10
a 92 91 10
a 92 107 2
a 107 92 2
a 94 95 3
a 95 94 3
a 95 110 4
a 110 95 4
a 95 96 8
a 96 95 8
a 96 111 2
a 111 96 2
a 96 97 4
a 97 96 4
a 97 112 1
a 112 97 1
a 97 98 9
a 98 97 9
a 98 113 8
a 113 98 8
a 98 99 8
a 99 98 8
a 99 114 6
a 114 99 6
a 99 100 3
a 100 99 3
a 100 115 9
a 115 100 9
a 100 101 7
a 101 100 7
a 101 116 10
a 116 101 10
a 103 118 6
a 118 103 6
a 103 104 7
a 104 103 7
a 106 121 6
a 121 106 6
a 106 107 10
a 107 106 10
a 107 122 7
a 122 107 7
a 110 125 9
a 125 110 9
a 110 111 10
a 111 110 10
a 111 126 9
a 126 111 9
a 111 112 1
a 112 111 1
a 112 127 4
a 127 112 4
a 112 113 7
a 113 112 7
a 113 128 3
a 128 113 3
a 113 114 2
a 114 113 2
a 114 115 9
a 115 114 9
a 115 130 2
a 130 115 2
a 115 116 1
a 116 115 1
a 116 131 8
a 131 116 8
a 116 117 6
a 117 116 6
a 117 132 7
a 132 117 7
a 117 118 9
a 118 117 9
a 118 133 1
a 133 118 1
a 120 135 6
a 135 120 6
a 121 136 4
a 136 121 4
a 121 122 7
a 122 121 7
a 122 137 4
a 137 122 4
a 122 123 8
a 123 122 8
a 123 138 1
a 138 123 1
a 123 124 6
a 124 123 6
a 124 139 4
a 139 124 4
a 124 125 8
a 125 124 8
a 125 140 6
a 140 125 6
a 125 126 7
a 126 125 7
a 126 141 2
a 141 126 2
a 126 127 3
a 127 126 3
a 127 142 7
a 142 127 7
a 127 128 1
a 128 127 1
a 128 143 2
a 143 128 2
a 130 131 7
a 131 130 7
a 131 146 1
a 146 131 1
a 131 132 6
a 132 131 6
a 132 147 3
a 147 132 3
a 132 133 7
a 133 132 7
a 133 134 8
a 134 133 8
a 134 149 10
a 149 134 10
a 134 135 10
a 135 134 10
a 135 150 1
a 150 135 1
a 136 137 4
a 137 136 4
a 137 152 10
a 152 137 10
a 137 138 2
a 138 137 2
a 138 153 8
a 153 138 8
a 138 139 2
a 139 138 2
a 139 154 3
a 154 139 3
a 139 140 10
a 140 139 10
a 140 155 3
a 155 140 3
a 140 141 3
a 141 140 3
a 141 156 7
a 156 141 7
a 141 142 7
a 142 141 7
a 142 157 5
a 157 142 5
a 142 143 2
a 143 142 2
a 143 158 5
a 158 143 5
a 143 144 6
a 144 143 6
a 144 159 8
a 159 144 8
a 146 161 9
a 161 146 9
a 146 147 8
a 147 146 8
a 147 162 8
a 162 147 8
a 149 164 4
a 164 149 4
a 149 150 2
a 150 149 2
a 150 165 4
a 165 150 4
a 152 167 10
a 167 152 10
a 152 153 10
a 153 152 10
a 153 168 10
a 168 153 10
a 153 154 10
a 154 153 10
a 154 169 9
a 169 154 9
a 154 155 8
a 155 154 8
a 155 170 4
a 170 155 4
a 155 156 3
a 156 155 3
a 156 171 1
a 171 156 1
a 156 157 5
a 157 156 5
a 157 172 6
a 172 157 6
a 157 158 5
a 158 157 5
a 158 173 10
a 173 158 10
a 158 159 6
a 159 158 6
a 159 174 8
a 174 159 8
a 159 160 10
a 160 159 10
a 160 175 10
a 175 160 10
a 160 161 3
a 161 160 3
a 161 176 1
a 176 161 1
a 161 162 5
a 162 161 5
a 162 177 8
a 177 162 8
a 162 163 5
a 163 162 5
a 163 178 4
a 178 163 4
a 163 164 6
a 164 163 6
a 164 179 7
a 179 164 7
a 164 165 1
a 165 164 1
a 166 181 1
a 181 166 1
a 166 167 7
a 167 166 7
a 167 182 5
a 182 167 5
a 167 168 2
a 168 167 2
a 168 183 8
a 183 168 8
a 168 169 7
a 169 168 7
a 169 184 4
a 184 169 4
a 169 170 10
a 170 169 10
a 170 185 9
a 185 170 9
a 170 171 7
a 171 170 7
a 171 172 1
a 172 171 1
a 172 187 8
a 187 172 8
a 172 173 1
a 173 172 1
a 173 188 5
a 188 173 5
a 173 174 3
a 174 173 3
a 174 189 8
a 189 174 8
a 174 175 8
a 175 174 8
a 175 190 1
a 190 175 1
a 175 176 4
a 176 175 4
a 176 191 8
a 191 176 8
a 176 177 3
a 177 176 3
a 177 192 6
a 192 177 6
a 177 178 8
a 178 177 8
a 178 193 6
a 193 178 6
a 178 179 9
a 179 178 9
a 179 194 1
a 194 179 1
a 181 196 9
a 196 181 9
a 181 182 5
a 182 181 5
a 182 197 4
a 197 182 4
a 182 183 3
a 183 182 3
a 183 198 4
a 198 183 4
a 183 184 5
a 184 183 5
a 184 199 7
a 199 184 7
a 184 185 5
a 185 184 5
a 185 200 9
a 200 185 9
a 187 202 7
a 202 187 7
a 187 188 8
a 188 187 8
a 188 203 1
a 203 188 1
a 188 189 8
a 189 188 8
a 189 204 10
a 204 189 10
a 189 190 4
a 190 189 4
a 190 191 1
a 191 190 1
a 191 206 4
a 206 191 4
a 191 192 10
a 192 191 10
a 192 207 2
a 207 192 2
a 192 193 4
a 193 192 4
a 193 208 9
a 208 193 9
a 193 194 6
a 194 193 6
a 194 209 10
a 209 194 10
a 194 195 10
a 195 194 10
a 196 211 2
a 211 196 2
a 196 197 10
a 197 196 10
a 197 212 1
a 212 197 1
a 197 198 7
a 198 197 7
a 198 213 8
a 213 198 8
a 198 199 10
a 199 198 10
a 199 214 7
a 214 199 7
a 199 200 9
a 200 199 9
a 200 215 9
a 215 200 9
a 200 201 8
a 201 200 8
a 201 216 5
a 216 201 5
a 201 202 4
a 202 201 4
a 202 217 5
a 217 202 5
a 202 203 1
a 203 202 1
a 203 218 8
a 218 203 8
a 203 204 1
a 204 203 1
a 204 219 5
a 219 204 5
a 206 221 2
a 221 206 2
a 206 207 4
a 207 206 4
a 207 222 2
a 222 207 2
a 207 208 9
a 208 207 9
a 208 223 7
a 223 208 7
a 208 209 3
a 209 208 3
a 209 224 7
a 224 209 7
a 211 212 5
a 212 211 5
a 212 213 2
a 213 212 2
a 213 214 9
a 214 213 9
a 214 215 2
a 215 214 2
a 215 216 8
a 216 215 8
a 216 217 4
a 217 216 4
a 217 218 4
a 218 217 4
a 218 219 2
a 219 218 2
a 219 220 10
a 220 219 10
a 220 221 1
a 221 220 1
a 221 222 4
a 222 221 4
a 222 223 9
a 223 222 9
a 223 224 5
a 224 223 5
a 224 225 4
a 225 224 4
